sat
(= |goto_symex::&92;guard#1| true)
(= |goto_symex::&92;guard#2| false)
(= |nondet_symex::nondet0| false)
(= |nondet_symex::nondet1| false)
(= |nondet_symex::nondet3| false)
(= |nondet_symex::nondet4| true)
(= |memory_model::choice_rf_1_22_0_9_T_0| true)
(= |memory_model::choice_rf_1_22_2_58_T_1| false)
(= |memory_model::choice_rf_2_57_0_9_T_2| true)
(= |memory_model::choice_rf_2_57_1_23_T_3| false)
(= |memory_model::choice_rf_0_39_0_7_T_4| false)
(= |memory_model::choice_rf_0_39_0_35_T_5| true)
(= |memory_model::choice_rf_0_51_0_18_F_6| false)
(= |memory_model::choice_rf_0_51_1_17_F_7| false)
(= |memory_model::choice_rf_0_51_2_37_F_8| false)
(= |memory_model::choice_rf_0_51_2_54_F_9| true)
(= |memory_model::choice_rf_1_7_0_18_F_10| false)
(= |memory_model::choice_rf_1_7_0_57_F_11| false)
(= |memory_model::choice_rf_1_7_2_37_F_12| true)
(= |memory_model::choice_rf_1_7_2_54_F_13| false)
(= |memory_model::choice_rf_2_25_0_18_F_14| true)
(= |memory_model::choice_rf_2_25_0_57_F_15| false)
(= |memory_model::choice_rf_2_25_1_17_F_16| false)
(= |memory_model::choice_rf_2_48_0_18_F_17| false)
(= |memory_model::choice_rf_2_48_0_57_F_18| false)
(= |memory_model::choice_rf_2_48_1_17_F_19| true)
(= |memory_model::choice_rf_2_48_2_37_F_20| false)
(= |memory_model::choice_rf_0_43_0_10_F_21| false)
(= |memory_model::choice_rf_0_43_1_21_F_22| false)
(= |memory_model::choice_rf_0_43_2_56_F_23| true)
(= |memory_model::choice_rf_1_20_0_10_F_24| true)
(= |memory_model::choice_rf_1_20_2_56_F_25| false)
(= |memory_model::choice_rf_2_55_0_10_F_26| false)
(= |memory_model::choice_rf_2_55_1_21_F_27| true)
(= |memory_model::choice_rf_0_61_0_11_F_28| false)
(= |memory_model::choice_rf_0_61_1_8_F_29| true)
(= |memory_model::choice_rf_0_60_0_12_F_30| false)
(= |memory_model::choice_rf_0_60_2_28_F_31| true)
(= |memory_model::choice_rf_2_16_0_12_F_32| false)
(= |memory_model::choice_rf_0_59_0_13_F_33| false)
(= |memory_model::choice_rf_0_59_2_42_F_34| true)
(= |memory_model::choice_rf_2_40_0_13_F_35| false)
(= |memory_model::choice_rf_0_45_0_14_F_36| false)
(= |memory_model::choice_rf_0_45_0_44_F_37| true)
(= |memory_model::choice_rf_0_58_0_15_F_38| false)
(= |memory_model::choice_rf_0_63_0_15_F_39| false)
(= |memory_model::choice_rf_0_63_0_62_F_40| true)
(= |memory_model::choice_rf_0_64_0_15_F_41| false)
(= |memory_model::choice_rf_0_64_0_62_F_42| true)
(= |memory_model::choice_rf_2_23_0_19_F_43| false)
(= |memory_model::choice_rf_2_23_1_15_F_44| false)
(= |memory_model::choice_rf_2_22_0_20_F_45| false)
(= |memory_model::choice_rf_2_22_1_14_F_46| false)
(= |memory_model::choice_rf_0_50_0_21_F_47| true)
(= |memory_model::choice_rf_2_5_0_21_F_48| true)
(= |memory_model::choice_rf_2_5_0_54_F_49| false)
(= |memory_model::choice_rf_1_5_0_22_F_50| true)
(= |memory_model::choice_rf_2_2_0_22_F_51| true)
(= |memory_model::choice_rf_2_2_1_10_F_52| false)
(= |memory_model::choice_rf_2_1_0_23_F_53| true)
(= |memory_model::choice_rf_2_21_0_23_F_54| false)
(= |memory_model::choice_rf_2_21_2_8_F_55| true)
(= |memory_model::choice_rf_2_47_0_23_F_56| false)
(= |memory_model::choice_rf_2_47_2_8_F_57| false)
(= |memory_model::choice_rf_2_47_2_30_F_58| true)
(= |memory_model::choice_rf_0_49_0_24_F_59| false)
(= |memory_model::choice_rf_0_49_2_11_F_60| true)
(= |memory_model::choice_rf_2_4_0_24_F_61| false)
(= |memory_model::choice_rf_2_4_0_53_F_62| false)
(= |memory_model::choice_rf_1_3_0_25_F_63| false)
(= |memory_model::choice_rf_1_3_2_10_F_64| true)
(= |memory_model::choice_rf_2_3_0_25_F_65| false)
(= |memory_model::choice_rf_2_3_1_9_F_66| false)
(= |memory_model::choice_rf_2_0_0_26_F_67| false)
(= |memory_model::choice_rf_2_20_0_26_F_68| false)
(= |memory_model::choice_rf_2_20_2_9_F_69| true)
(= |memory_model::choice_rf_2_46_0_26_F_70| false)
(= |memory_model::choice_rf_2_46_2_9_F_71| false)
(= |memory_model::choice_rf_2_46_2_29_F_72| true)
(= |memory_model::choice_rf_0_48_0_29_F_73| false)
(= |memory_model::choice_rf_0_48_1_13_F_74| true)
(= |memory_model::choice_rf_0_48_2_14_F_75| false)
(= |memory_model::choice_rf_0_48_2_33_F_76| false)
(= |memory_model::choice_rf_1_2_0_29_F_77| false)
(= |memory_model::choice_rf_1_2_2_14_F_78| false)
(= |memory_model::choice_rf_1_2_2_33_F_79| true)
(= |memory_model::choice_rf_2_7_0_29_F_80| true)
(= |memory_model::choice_rf_2_7_1_13_F_81| false)
(= |memory_model::choice_rf_2_18_0_29_F_82| false)
(= |memory_model::choice_rf_2_18_1_13_F_83| false)
(= |memory_model::choice_rf_2_18_2_14_F_84| true)
(= |memory_model::choice_rf_2_45_0_29_F_85| false)
(= |memory_model::choice_rf_2_45_1_13_F_86| true)
(= |memory_model::choice_rf_2_45_2_14_F_87| false)
(= |memory_model::choice_rf_2_45_2_33_F_88| false)
(= |memory_model::choice_rf_0_52_0_30_F_89| false)
(= |memory_model::choice_rf_0_52_1_16_F_90| false)
(= |memory_model::choice_rf_0_52_2_12_F_91| false)
(= |memory_model::choice_rf_0_52_2_36_F_92| false)
(= |memory_model::choice_rf_0_52_2_53_F_93| true)
(= |memory_model::choice_rf_1_6_0_30_F_94| false)
(= |memory_model::choice_rf_1_6_0_56_F_95| false)
(= |memory_model::choice_rf_1_6_2_12_F_96| false)
(= |memory_model::choice_rf_1_6_2_36_F_97| true)
(= |memory_model::choice_rf_1_6_2_53_F_98| false)
(= |memory_model::choice_rf_2_6_0_30_F_99| true)
(= |memory_model::choice_rf_2_6_0_56_F_100| false)
(= |memory_model::choice_rf_2_6_1_16_F_101| false)
(= |memory_model::choice_rf_2_24_0_30_F_102| false)
(= |memory_model::choice_rf_2_24_0_56_F_103| false)
(= |memory_model::choice_rf_2_24_1_16_F_104| false)
(= |memory_model::choice_rf_2_24_2_12_F_105| true)
(= |memory_model::choice_rf_2_49_0_30_F_106| false)
(= |memory_model::choice_rf_2_49_0_56_F_107| false)
(= |memory_model::choice_rf_2_49_1_16_F_108| true)
(= |memory_model::choice_rf_2_49_2_12_F_109| false)
(= |memory_model::choice_rf_2_49_2_36_F_110| false)
(= |memory_model::choice_rf_0_46_0_31_F_111| false)
(= |memory_model::choice_rf_0_46_1_12_F_112| true)
(= |memory_model::choice_rf_0_46_2_15_F_113| false)
(= |memory_model::choice_rf_0_46_2_32_F_114| false)
(= |memory_model::choice_rf_1_1_0_31_F_115| false)
(= |memory_model::choice_rf_1_1_2_15_F_116| false)
(= |memory_model::choice_rf_1_1_2_32_F_117| true)
(= |memory_model::choice_rf_2_17_0_31_F_118| false)
(= |memory_model::choice_rf_2_17_1_12_F_119| false)
(= |memory_model::choice_rf_2_17_2_15_F_120| true)
(= |memory_model::choice_rf_2_43_0_31_F_121| false)
(= |memory_model::choice_rf_2_43_1_12_F_122| true)
(= |memory_model::choice_rf_2_43_2_15_F_123| false)
(= |memory_model::choice_rf_2_43_2_32_F_124| false)
(= |memory_model::choice_rf_0_47_0_32_F_125| false)
(= |memory_model::choice_rf_0_47_1_11_F_126| false)
(= |memory_model::choice_rf_0_47_2_13_F_127| false)
(= |memory_model::choice_rf_0_47_2_31_F_128| false)
(= |memory_model::choice_rf_0_47_2_52_F_129| true)
(= |memory_model::choice_rf_1_4_0_32_F_130| false)
(= |memory_model::choice_rf_1_4_0_55_F_131| false)
(= |memory_model::choice_rf_1_4_2_13_F_132| false)
(= |memory_model::choice_rf_1_4_2_31_F_133| true)
(= |memory_model::choice_rf_1_4_2_52_F_134| false)
(= |memory_model::choice_rf_2_19_0_32_F_135| false)
(= |memory_model::choice_rf_2_19_0_55_F_136| false)
(= |memory_model::choice_rf_2_19_1_11_F_137| false)
(= |memory_model::choice_rf_2_19_2_13_F_138| true)
(= |memory_model::choice_rf_2_44_0_32_F_139| false)
(= |memory_model::choice_rf_2_44_0_55_F_140| false)
(= |memory_model::choice_rf_2_44_1_11_F_141| true)
(= |memory_model::choice_rf_2_44_2_13_F_142| false)
(= |memory_model::choice_rf_2_44_2_31_F_143| false)
(= |memory_model::choice_rf_2_41_0_33_F_144| true)
(= |memory_model::choice_rf_2_41_1_0_F_145| false)
(= |memory_model::choice_rf_2_27_0_16_F_146| false)
(= |memory_model::choice_rf_2_27_1_19_F_147| false)
(= |memory_model::choice_rf_2_26_0_17_F_148| false)
(= |memory_model::choice_rf_2_26_1_18_F_149| false)
(= |memory_model::choice_ws-ext_0_9_1_23_T_150| true)
(= |memory_model::choice_ws-ext_0_9_2_58_T_151| true)
(= |memory_model::choice_ws-ext_1_23_2_58_T_152| false)
(= |memory_model::choice_ws-ext_0_18_1_17_F_153| true)
(= |memory_model::choice_ws-ext_0_18_2_37_F_154| true)
(= |memory_model::choice_ws-ext_0_18_2_54_F_155| true)
(= |memory_model::choice_ws-ext_0_57_1_17_F_156| false)
(= |memory_model::choice_ws-ext_0_57_2_37_F_157| false)
(= |memory_model::choice_ws-ext_0_57_2_54_F_158| false)
(= |memory_model::choice_ws-ext_1_17_2_37_F_159| false)
(= |memory_model::choice_ws-ext_1_17_2_54_F_160| true)
(= |memory_model::choice_ws-ext_0_10_1_21_F_161| true)
(= |memory_model::choice_ws-ext_0_10_2_56_F_162| true)
(= |memory_model::choice_ws-ext_1_21_2_56_F_163| true)
(= |memory_model::choice_ws-ext_0_11_1_8_F_164| true)
(= |memory_model::choice_ws-ext_0_12_2_28_F_165| true)
(= |memory_model::choice_ws-ext_0_13_2_42_F_166| true)
(= |memory_model::choice_ws-ext_0_19_1_15_F_167| true)
(= |memory_model::choice_ws-ext_0_19_2_35_F_168| true)
(= |memory_model::choice_ws-ext_1_15_2_35_F_169| false)
(= |memory_model::choice_ws-ext_0_20_1_14_F_170| true)
(= |memory_model::choice_ws-ext_0_20_2_34_F_171| true)
(= |memory_model::choice_ws-ext_1_14_2_34_F_172| false)
(= |memory_model::choice_ws-ext_0_22_1_10_F_173| true)
(= |memory_model::choice_ws-ext_0_23_2_8_F_174| true)
(= |memory_model::choice_ws-ext_0_23_2_30_F_175| true)
(= |memory_model::choice_ws-ext_0_23_2_51_F_176| true)
(= |memory_model::choice_ws-ext_0_24_2_11_F_177| true)
(= |memory_model::choice_ws-ext_0_53_2_11_F_178| false)
(= |memory_model::choice_ws-ext_0_25_1_9_F_179| true)
(= |memory_model::choice_ws-ext_0_25_2_10_F_180| true)
(= |memory_model::choice_ws-ext_1_9_2_10_F_181| false)
(= |memory_model::choice_ws-ext_0_26_2_9_F_182| true)
(= |memory_model::choice_ws-ext_0_26_2_29_F_183| true)
(= |memory_model::choice_ws-ext_0_26_2_50_F_184| true)
(= |memory_model::choice_ws-ext_0_29_1_13_F_185| true)
(= |memory_model::choice_ws-ext_0_29_2_14_F_186| true)
(= |memory_model::choice_ws-ext_0_29_2_33_F_187| true)
(= |memory_model::choice_ws-ext_1_13_2_14_F_188| false)
(= |memory_model::choice_ws-ext_1_13_2_33_F_189| false)
(= |memory_model::choice_ws-ext_0_30_1_16_F_190| true)
(= |memory_model::choice_ws-ext_0_30_2_12_F_191| true)
(= |memory_model::choice_ws-ext_0_30_2_36_F_192| true)
(= |memory_model::choice_ws-ext_0_30_2_53_F_193| true)
(= |memory_model::choice_ws-ext_0_56_1_16_F_194| false)
(= |memory_model::choice_ws-ext_0_56_2_12_F_195| false)
(= |memory_model::choice_ws-ext_0_56_2_36_F_196| false)
(= |memory_model::choice_ws-ext_0_56_2_53_F_197| false)
(= |memory_model::choice_ws-ext_1_16_2_12_F_198| false)
(= |memory_model::choice_ws-ext_1_16_2_36_F_199| false)
(= |memory_model::choice_ws-ext_1_16_2_53_F_200| true)
(= |memory_model::choice_ws-ext_0_31_1_12_F_201| true)
(= |memory_model::choice_ws-ext_0_31_2_15_F_202| true)
(= |memory_model::choice_ws-ext_0_31_2_32_F_203| true)
(= |memory_model::choice_ws-ext_1_12_2_15_F_204| false)
(= |memory_model::choice_ws-ext_1_12_2_32_F_205| false)
(= |memory_model::choice_ws-ext_0_32_1_11_F_206| true)
(= |memory_model::choice_ws-ext_0_32_2_13_F_207| true)
(= |memory_model::choice_ws-ext_0_32_2_31_F_208| true)
(= |memory_model::choice_ws-ext_0_32_2_52_F_209| true)
(= |memory_model::choice_ws-ext_0_55_1_11_F_210| false)
(= |memory_model::choice_ws-ext_0_55_2_13_F_211| false)
(= |memory_model::choice_ws-ext_0_55_2_31_F_212| false)
(= |memory_model::choice_ws-ext_0_55_2_52_F_213| false)
(= |memory_model::choice_ws-ext_1_11_2_13_F_214| false)
(= |memory_model::choice_ws-ext_1_11_2_31_F_215| false)
(= |memory_model::choice_ws-ext_1_11_2_52_F_216| true)
(= |memory_model::choice_ws-ext_0_33_1_0_F_217| true)
(= |memory_model::choice_ws-ext_0_16_1_19_F_218| true)
(= |memory_model::choice_ws-ext_0_16_2_39_F_219| true)
(= |memory_model::choice_ws-ext_1_19_2_39_F_220| false)
(= |memory_model::choice_ws-ext_0_17_1_18_F_221| true)
(= |memory_model::choice_ws-ext_0_17_2_38_F_222| true)
(= |memory_model::choice_ws-ext_1_18_2_38_F_223| false)
(= |main$tmp_guard0#3| #b00000001)
(= |__CPROVER_next_thread_id#3| #b00000000000000000000000000000001)
(= |__unbuffered_cnt#2| #b00000000000000000000000000000010)
(= |x$w_buff0_used#2| #b00000000)
(= |x$r_buff0_thd0#2| #b00000000)
(= |x$w_buff0#2| #b00000000000000000000000000000001)
(= |x$w_buff1_used#2| #b00000000)
(= |x$r_buff1_thd0#2| #b00000000)
(= |x$w_buff1#2| #b00000000000000000000000000000000)
(= |x#2| #b00000000000000000000000000000001)
(= |x#4| #b00000000000000000000000000000001)
(= |x$w_buff0_used#6| #b00000000)
(= |x$w_buff1_used#6| #b00000000)
(= |x$r_buff0_thd0#8| #b00000000)
(= |x$r_buff1_thd0#7| #b00000000)
(= |__unbuffered_p0_EAX#2| #b00000000000000000000000000000000)
(= |__unbuffered_p1_EAX#2| #b00000000000000000000000000000001)
(= |__unbuffered_p1_EBX#2| #b00000000000000000000000000000000)
(= |main$tmp_guard1#2| #b00000000)
(= |main$tmp_guard1#3| #b10000000)
(= |main$tmp_guard1#6| #b00000000)
(= |pthread_create::1::this_thread_id!1@0#0| #b10000000000000000000000000000000)
(= |x#6| #b00000000000000000000000000000000)
(= |x$w_buff0_used#11| #b00000001)
(= |x$r_buff0_thd1#2| #b00000000)
(= |x$w_buff1_used#9| #b00000000)
(= |x$r_buff1_thd1#2| #b00000000)
(= |x$w_buff0#4| #b00000000000000000000000000000001)
(= |x$w_buff1#4| #b00000000000000000000000000000000)
(= |__unbuffered_cnt#4| #b00000000000000000000000000000000)
(= |pthread_create::1::this_thread_id!2@0#0| #b00000000000000000000000000000000)
(= |x$w_buff0#7| #b00000000000000000000000000000000)
(= |x$w_buff0_used#14| #b00000000)
(= |x$r_buff0_thd0#11| #b00000000)
(= |x$r_buff1_thd0#9| #b00000000)
(= |x$r_buff1_thd0#10| #b10000000)
(= |x$r_buff0_thd1#5| #b00000000)
(= |x$r_buff1_thd1#5| #b00000000)
(= |x$r_buff1_thd1#6| #b10000000)
(= |x$r_buff0_thd2#2| #b00000000)
(= |x$r_buff1_thd2#2| #b00000000)
(= |x$r_buff1_thd2#3| #b10000000)
(= |x$r_buff0_thd2#4| #b00000001)
(= |weak$$choice0#3| #b00000000)
(= |weak$$choice0#4| #b10000000)
(= |weak$$choice2#3| #b00000001)
(= |weak$$choice2#4| #b10000000)
(= |x$flush_delayed#4| #b00000001)
(= |x$flush_delayed#5| #b10000000)
(= |x#10| #b00000000000000000000000000000000)
(= |x$mem_tmp#3| #b00000000000000000000000000000000)
(= |x$mem_tmp#4| #b10000000000000000000000000000000)
(= |x$w_buff0_used#17| #b00000001)
(= |x$r_buff0_thd2#6| #b00000001)
(= |x$w_buff1_used#13| #b00000000)
(= |x$r_buff1_thd2#5| #b00000000)
(= |x$w_buff0#10| #b00000000000000000000000000000001)
(= |x$w_buff1#8| #b00000000000000000000000000000000)
(= |x#13| #b00000000000000000000000000000001)
(= |x$w_buff0#16| #b00000000000000000000000000000001)
(= |x$w_buff1#14| #b00000000000000000000000000000000)
(= |x$w_buff0_used#29| #b00000001)
(= |x$w_buff1_used#21| #b00000000)
(= |x$r_buff0_thd2#28| #b00000001)
(= |x$r_buff1_thd2#15| #b00000000)
(= |__unbuffered_p1_EAX#4| #b00000000000000000000000000000001)
(= |__unbuffered_p1_EAX#5| #b10000000000000000000000000000000)
(= |x#17| #b00000000000000000000000000000000)
(= |x$flush_delayed#8| #b00000000)
(= |y#3| #b00000000000000000000000000000000)
(= |__unbuffered_p1_EBX#4| #b00000000000000000000000000000000)
(= |__unbuffered_p1_EBX#5| #b10000000000000000000000000000000)
(= |x$w_buff0_used#37| #b00000001)
(= |x$r_buff0_thd2#33| #b00000001)
(= |x$w_buff0#18| #b00000000000000000000000000000001)
(= |x$w_buff1_used#25| #b00000000)
(= |x$r_buff1_thd2#17| #b00000000)
(= |x$w_buff1#16| #b00000000000000000000000000000000)
(= |x#19| #b00000000000000000000000000000000)
(= |x#21| #b00000000000000000000000000000001)
(= |x$w_buff0_used#41| #b00000000)
(= |x$w_buff1_used#29| #b00000000)
(= |x$r_buff0_thd2#39| #b00000001)
(= |x$r_buff1_thd2#22| #b00000000)
(= |__unbuffered_cnt#7| #b00000000000000000000000000000001)
(= |__unbuffered_cnt#9| #b00000000000000000000000000000010)
(= |__CPROVER_threads_exited#1$wclk$8| #b00001010)
(= |__CPROVER_threads_exited#2$rclk$8| #b11111100)
(= |__CPROVER_threads_exited#5$wclk$8| #b11111101)
(= |__CPROVER_threads_exited#4$rclk$8| #b11100001)
(= |__CPROVER_threads_exited#3$wclk$8| #b11111110)
(= |x#9$wclk$8| #b11011001)
(= |x#2$rclk$8| #b11101111)
(= |x#18$wclk$8| #b11001110)
(= |x#22$wclk$8| #b11011100)
(= |x#1$wclk$8| #b00110000)
(= |x#6$rclk$8| #b11011001)
(= |x#5$wclk$8| #b11101111)
(= |x#10$rclk$8| #b11001110)
(= |x#19$rclk$8| #b11011100)
(= |__unbuffered_cnt#6$wclk$8| #b11011100)
(= |__unbuffered_cnt#2$rclk$8| #b11011110)
(= |__unbuffered_cnt#10$wclk$8| #b11011101)
(= |__unbuffered_cnt#1$wclk$8| #b00001100)
(= |__unbuffered_cnt#4$rclk$8| #b11011100)
(= |__unbuffered_cnt#7$rclk$8| #b11011101)
(= |__unbuffered_p0_EAX#4$wclk$8| #b11011001)
(= |__unbuffered_p0_EAX#2$rclk$8| #b11111001)
(= |__unbuffered_p1_EAX#6$wclk$8| #b11001110)
(= |__unbuffered_p1_EAX#2$rclk$8| #b11111001)
(= |__unbuffered_p1_EAX#1$wclk$8| #b00100000)
(= |__unbuffered_p1_EAX#5$rclk$8| #b11001110)
(= |__unbuffered_p1_EBX#6$wclk$8| #b11010101)
(= |__unbuffered_p1_EBX#2$rclk$8| #b11111001)
(= |__unbuffered_p1_EBX#1$wclk$8| #b00100001)
(= |__unbuffered_p1_EBX#5$rclk$8| #b11010101)
(= |main$tmp_guard1#5| #b00000000)
(= |x$flush_delayed#1$wclk$8| #b00110001)
(= |x$flush_delayed#5$rclk$8| #b11001110)
(= |x$flush_delayed#3$wclk$8| #b11011001)
(= |x$mem_tmp#1$wclk$8| #b00110010)
(= |x$mem_tmp#4$rclk$8| #b11001110)
(= |x$mem_tmp#2$wclk$8| #b11011001)
(= |x$r_buff0_thd0#1$wclk$8| #b00110011)
(= |x$r_buff0_thd0#11$rclk$8| #b11001010)
(= |x$r_buff0_thd0#10$wclk$8| #b11101111)
(= |x$r_buff0_thd1#1$wclk$8| #b00110100)
(= |x$r_buff0_thd1#2$rclk$8| #b11011001)
(= |x$r_buff0_thd1#5$rclk$8| #b11001010)
(= |x$r_buff0_thd1#4$wclk$8| #b11011001)
(= |x$r_buff0_thd2#1$wclk$8| #b00110110)
(= |x$r_buff0_thd2#2$rclk$8| #b11001010)
(= |x$r_buff0_thd2#6$rclk$8| #b11001110)
(= |x$r_buff0_thd2#33$rclk$8| #b11011100)
(= |x$r_buff1_thd0#11$wclk$8| #b11001010)
(= |x$r_buff1_thd0#2$rclk$8| #b11101111)
(= |x$r_buff1_thd0#1$wclk$8| #b00110111)
(= |x$r_buff1_thd0#10$rclk$8| #b11001010)
(= |x$r_buff1_thd0#8$wclk$8| #b11101111)
(= |x$r_buff1_thd1#1$wclk$8| #b00111000)
(= |x$r_buff1_thd1#2$rclk$8| #b11011001)
(= |x$r_buff1_thd1#7$wclk$8| #b11001010)
(= |x$r_buff1_thd1#6$rclk$8| #b11001010)
(= |x$r_buff1_thd1#4$wclk$8| #b11011001)
(= |x$r_buff1_thd2#1$wclk$8| #b00111001)
(= |x$r_buff1_thd2#3$rclk$8| #b11001010)
(= |x$r_buff1_thd2#5$rclk$8| #b11001110)
(= |x$r_buff1_thd2#17$rclk$8| #b11011100)
(= |x$w_buff0#6$wclk$8| #b11011001)
(= |x$w_buff0#2$rclk$8| #b11101111)
(= |x$w_buff0#9$wclk$8| #b11001010)
(= |x$w_buff0#17$wclk$8| #b11001110)
(= |x$w_buff0#1$wclk$8| #b00111100)
(= |x$w_buff0#4$rclk$8| #b11011001)
(= |x$w_buff0#7$rclk$8| #b11001010)
(= |x$w_buff0#10$rclk$8| #b11001110)
(= |x$w_buff0#18$rclk$8| #b11011100)
(= |x$w_buff0_used#13$wclk$8| #b11011001)
(= |x$w_buff0_used#2$rclk$8| #b11101111)
(= |x$w_buff0_used#16$wclk$8| #b11001010)
(= |x$w_buff0_used#36$wclk$8| #b11001110)
(= |x$w_buff0_used#45$wclk$8| #b11011100)
(= |x$w_buff0_used#1$wclk$8| #b00111101)
(= |x$w_buff0_used#11$rclk$8| #b11011001)
(= |x$w_buff0_used#10$wclk$8| #b11101111)
(= |x$w_buff0_used#14$rclk$8| #b11001010)
(= |x$w_buff0_used#17$rclk$8| #b11001110)
(= |x$w_buff0_used#37$rclk$8| #b11011100)
(= |x$w_buff1#6$wclk$8| #b11011001)
(= |x$w_buff1#2$rclk$8| #b11101111)
(= |x$w_buff1#7$wclk$8| #b11001010)
(= |x$w_buff1#15$wclk$8| #b11001110)
(= |x$w_buff1#1$wclk$8| #b00111110)
(= |x$w_buff1#4$rclk$8| #b11011001)
(= |x$w_buff1#8$rclk$8| #b11001110)
(= |x$w_buff1#16$rclk$8| #b11011100)
(= |x$w_buff1_used#11$wclk$8| #b11011001)
(= |x$w_buff1_used#2$rclk$8| #b11101111)
(= |x$w_buff1_used#12$wclk$8| #b11001010)
(= |x$w_buff1_used#24$wclk$8| #b11001110)
(= |x$w_buff1_used#31$wclk$8| #b11011100)
(= |x$w_buff1_used#1$wclk$8| #b00111111)
(= |x$w_buff1_used#9$rclk$8| #b11011001)
(= |x$w_buff1_used#8$wclk$8| #b11101111)
(= |x$w_buff1_used#13$rclk$8| #b11001110)
(= |x$w_buff1_used#25$rclk$8| #b11011100)
(= |y#1$wclk$8| #b01110110)
(= |y#3$rclk$8| #b11010101)
(= |y#2$wclk$8| #b11010110)
(= |weak$$choice0#1$wclk$8| #b00100100)
(= |weak$$choice0#4$rclk$8| #b11001110)
(= |weak$$choice0#2$wclk$8| #b11011001)
(= |weak$$choice2#1$wclk$8| #b00101000)
(= |weak$$choice2#4$rclk$8| #b11001110)
(= |weak$$choice2#2$wclk$8| #b11011001)
(= |__unbuffered_p0_EAX#1$wclk$8| #b00001101)
(= |x$flush_delayed#9$wclk$8| #b11001110)
(= |x$mem_tmp#6$wclk$8| #b11001110)
(= |x$r_buff0_thd2#5$wclk$8| #b11001010)
(= |x$r_buff0_thd2#32$wclk$8| #b11001110)
(= |x$r_buff0_thd2#41$wclk$8| #b11011100)
(= |x$r_buff1_thd2#4$wclk$8| #b11001010)
(= |x$r_buff1_thd2#16$wclk$8| #b11001110)
(= |x$r_buff1_thd2#23$wclk$8| #b11011100)
(= |weak$$choice0#5$wclk$8| #b11001110)
(= |weak$$choice2#12$wclk$8| #b11001110)
(= t1$37$spwnclk$8 #b10111111)
(= t1$42$spwnclk$8 #b11000011)
(= |main::1::t314!0@1$wclk$8| #b00000000)
(= |__CPROVER_dead_object#1$wclk$8| #b00000001)
(= |__CPROVER_deallocated#1$wclk$8| #b00000010)
(= |__CPROVER_malloc_is_new_array#1$wclk$8| #b00000011)
(= |__CPROVER_malloc_object#1$wclk$8| #b00000100)
(= |__CPROVER_malloc_size#1$wclk$8| #b00000101)
(= |__CPROVER_memory_leak#1$wclk$8| #b00000110)
(= |__CPROVER_next_thread_id#1$wclk$8| #b00000111)
(= |__CPROVER_pipe_count#1$wclk$8| #b00001000)
(= |main$tmp_guard0#1$wclk$8| #b00100010)
(= |main$tmp_guard1#1$wclk$8| #b00100011)
(= |x$read_delayed#1$wclk$8| #b00111010)
(= |x$read_delayed_var#1$wclk$8| #b00111011)
(= |main::1::t313!0@1#1$wclk$8| #b01110111)
(= |__CPROVER_next_thread_id#2$wclk$8| #b01111101)
(= |main::1::t313!0@1#2$wclk$8| #b01111110)
(= |main::1::t314!0@1#1$wclk$8| #b11000000)
(= |__CPROVER_next_thread_id#3$rclk$8| #b11000001)
(= |__CPROVER_next_thread_id#5$wclk$8| #b11000001)
(= |main::1::t314!0@1#2$wclk$8| #b11000010)
(= |main$tmp_guard0#2$wclk$8| #b11011110)
(= |main$tmp_guard0#3$rclk$8| #b11011111)
(= |x$r_buff0_thd0#2$rclk$8| #b11101111)
(= |main$tmp_guard1#3$rclk$8| #b11111001)
(= |main$tmp_guard1#4$wclk$8| #b11111001)
(= |main$tmp_guard1#5$rclk$8| #b11111011)
(= |main$tmp_guard1#6$rclk$8| #b11111100)
(= array_of.0 @fun_7)
(= |__CPROVER_threads_exited#2| @fun_7)
(= |__CPROVER_threads_exited#4| @fun_7)
(function @fun_7
 (type (Array (_ BitVec 32) (_ BitVec 1)))
 (= (@fun_7 #b00000000000000000000000000000000) #b0)
 (default #b1))

real	0m0.019s
user	0m0.016s
sys	0m0.003s
State: AC Run_time: 0.02131175994873047